language ESSENCE' 1.0

letting jobs = 102
letting horizon = 782
letting resourcesRenew = 2
letting resourcesNonrenew = 2
letting resourceLimits = [17, 18, 269, 286]
letting successors = [[2, 3, 4, 6, 7, 8, 9, 10], [19, 16, 15, 5], [25, 22, 20, 19, 14, 13, 11], [27, 25, 20, 18, 17, 15, 14, 12], [25, 22, 18, 14, 13], [31, 27, 22, 21, 20, 17, 16], [24, 21, 20, 13], [42, 27, 26, 24, 23, 22, 21, 19], [27, 22, 20, 19, 18], [36, 25, 24, 21, 17], [36, 31, 28, 27, 21, 18], [42, 31, 30, 24, 23, 22, 21], [36, 31, 27, 17], [42, 31, 30, 24, 23, 21], [46, 42, 36, 32, 29, 28, 26, 24], [46, 42, 36, 35, 32, 25, 24], [46, 42, 33, 28, 26, 23], [46, 30, 24, 23], [37, 34, 33, 30, 29, 28], [46, 45, 44, 42, 40, 35, 33, 32], [46, 44, 39, 38, 37, 35, 29], [49, 46, 45, 44, 41, 40, 37, 36, 33], [45, 44, 40, 39, 37, 35, 32], [44, 41, 40, 37, 34, 33], [41, 38, 37, 34, 30], [48, 41, 38, 34, 30], [45, 43, 38, 37, 32], [57, 51, 49, 48, 47, 44, 43, 41, 38], [57, 53, 52, 51, 49, 47, 45, 43, 41, 40], [51, 49, 47, 45, 43, 40, 39], [51, 49, 48, 47, 45, 43, 39], [57, 53, 52, 51, 49, 48, 47, 41], [50, 47, 39, 38], [57, 54, 53, 51, 49, 43], [57, 54, 53, 52, 49, 43], [64, 57, 56, 55, 54, 53, 51], [64, 56, 53, 51, 48], [64, 59, 58, 56, 55, 54, 53], [69, 65, 59, 58, 57, 53, 52], [59, 55, 54, 50], [61, 59, 58, 56, 55, 54], [69, 65, 64, 59, 55, 53], [60, 59, 58, 50], [64, 59, 54, 52], [72, 70, 69, 65, 64, 62, 59, 56, 55], [54, 50], [82, 70, 69, 65, 64, 58, 56, 55], [72, 71, 66, 62, 60, 59, 54], [70, 62, 61, 59, 56, 55], [82, 70, 69, 67, 66, 64, 62, 61, 56], [75, 71, 70, 68, 66, 61, 60, 58], [72, 70, 66, 62, 60, 56], [82, 77, 75, 71, 70, 67, 63, 62, 61], [75, 73, 70, 69, 67, 65, 63], [74, 73, 71, 68, 66, 60], [77, 75, 73, 71, 63], [85, 83, 82, 79, 78, 77, 75, 73, 70], [91, 77, 62], [90, 89, 87, 85, 84, 83, 82, 81, 79, 78, 75], [92, 91, 89, 80, 78, 77, 76, 67], [83, 81, 78, 73, 72], [101, 92, 85, 79, 78, 74, 73], [92, 91, 79, 74, 68], [91, 89, 87, 75, 68], [92, 86, 83, 80, 79, 77, 74], [101, 92, 91, 89, 84, 78, 76], [101, 100, 90, 87, 86, 85, 84, 79], [101, 90, 86, 85, 84, 81, 78], [101, 89, 87, 86, 84, 80, 78], [100, 91, 90, 89, 84, 76], [89, 85, 84, 83, 78], [101, 100, 95, 91, 90, 89, 85, 84], [100, 90, 89, 80, 76], [100, 89, 87, 84], [99, 98, 92, 88, 86, 80], [97, 88, 87, 86], [101, 100, 97, 95, 94, 90], [100, 98, 97, 95, 88], [99, 97, 95, 94, 88], [97, 96, 95, 94, 93], [100, 99, 96, 95, 94], [99, 97, 96, 94, 93], [101, 95, 93, 91], [98, 97, 88], [98, 97, 94, 93], [96, 95, 93], [98, 95, 94], [96, 93], [99, 93], [98, 93], [94], [93], [102], [102], [102], [102], [102], [102], [102], [102], [102], []]
letting durations = [[0], [3, 4, 6], [3, 9, 9], [1, 6, 8], [1, 4, 9], [2, 2, 10], [4, 4, 6], [1, 1, 2], [3, 7, 10], [4, 9, 10], [2, 4, 7], [5, 6, 7], [1, 7, 10], [4, 7, 9], [7, 8, 9], [7, 7, 10], [2, 3, 6], [6, 7, 9], [5, 7, 10], [2, 6, 6], [4, 4, 8], [2, 3, 5], [2, 6, 7], [2, 8, 10], [3, 4, 9], [8, 9, 9], [2, 7, 10], [6, 7, 10], [3, 5, 10], [2, 4, 9], [1, 8, 10], [2, 2, 8], [6, 7, 8], [2, 3, 3], [4, 8, 9], [2, 2, 7], [2, 3, 5], [1, 4, 6], [1, 2, 10], [1, 1, 5], [8, 8, 9], [1, 4, 8], [3, 4, 10], [4, 5, 9], [3, 7, 8], [2, 3, 7], [7, 8, 9], [2, 3, 7], [2, 6, 6], [7, 8, 10], [7, 7, 8], [4, 5, 9], [7, 8, 9], [3, 4, 4], [7, 9, 9], [1, 5, 8], [3, 4, 9], [2, 8, 8], [1, 4, 7], [1, 5, 6], [2, 6, 8], [5, 6, 9], [8, 9, 10], [3, 4, 7], [3, 6, 8], [1, 3, 4], [4, 4, 6], [5, 6, 9], [2, 6, 7], [6, 7, 8], [7, 9, 10], [5, 5, 7], [1, 5, 5], [4, 5, 8], [2, 7, 9], [1, 5, 7], [1, 7, 7], [1, 7, 10], [1, 5, 8], [2, 3, 4], [1, 7, 9], [1, 5, 10], [2, 6, 9], [2, 3, 6], [2, 6, 8], [3, 6, 10], [2, 10, 10], [6, 7, 8], [4, 5, 7], [4, 4, 4], [4, 5, 7], [1, 6, 7], [7, 8, 8], [2, 9, 10], [4, 6, 7], [1, 2, 9], [1, 3, 6], [1, 5, 5], [1, 1, 1], [1, 4, 9], [5, 8, 10], [0]]
letting resourceUsage = [[[0, 0, 0, 0]], [[0, 2, 8, 0], [4, 0, 0, 4], [0, 1, 8, 0]], [[4, 0, 0, 10], [0, 4, 7, 0], [0, 4, 0, 8]], [[5, 0, 5, 0], [2, 0, 0, 3], [0, 2, 0, 3]], [[1, 0, 0, 5], [1, 0, 6, 0], [0, 3, 0, 3]], [[0, 4, 7, 0], [4, 0, 0, 9], [0, 4, 0, 9]], [[4, 0, 0, 7], [4, 0, 5, 0], [0, 2, 0, 2]], [[5, 0, 0, 3], [0, 1, 0, 3], [0, 1, 0, 2]], [[3, 0, 7, 0], [0, 4, 7, 0], [3, 0, 0, 5]], [[0, 3, 0, 7], [0, 3, 2, 0], [0, 3, 0, 3]], [[5, 0, 0, 7], [0, 3, 0, 7], [1, 0, 0, 5]], [[0, 3, 0, 8], [3, 0, 0, 7], [3, 0, 2, 0]], [[0, 3, 3, 0], [3, 0, 2, 0], [0, 2, 0, 9]], [[4, 0, 9, 0], [2, 0, 0, 7], [2, 0, 5, 0]], [[5, 0, 4, 0], [4, 0, 3, 0], [4, 0, 2, 0]], [[0, 4, 9, 0], [3, 0, 0, 2], [0, 2, 0, 2]], [[0, 2, 8, 0], [4, 0, 0, 7], [0, 2, 0, 7]], [[4, 0, 0, 9], [0, 2, 0, 9], [2, 0, 0, 8]], [[0, 4, 0, 9], [3, 0, 0, 8], [1, 0, 0, 6]], [[0, 3, 6, 0], [0, 3, 5, 0], [0, 3, 0, 2]], [[0, 5, 0, 4], [2, 0, 7, 0], [1, 0, 2, 0]], [[4, 0, 0, 6], [0, 3, 7, 0], [0, 3, 6, 0]], [[0, 2, 4, 0], [0, 2, 3, 0], [1, 0, 1, 0]], [[0, 4, 4, 0], [3, 0, 4, 0], [2, 0, 0, 5]], [[0, 2, 1, 0], [2, 0, 0, 6], [0, 1, 0, 6]], [[0, 1, 0, 8], [2, 0, 0, 6], [0, 1, 0, 5]], [[4, 0, 0, 7], [0, 1, 0, 6], [3, 0, 0, 5]], [[0, 2, 6, 0], [1, 0, 6, 0], [0, 2, 0, 4]], [[0, 4, 8, 0], [0, 3, 6, 0], [0, 3, 0, 6]], [[3, 0, 0, 9], [3, 0, 2, 0], [0, 1, 1, 0]], [[0, 3, 0, 4], [0, 2, 3, 0], [2, 0, 3, 0]], [[1, 0, 9, 0], [0, 1, 0, 4], [0, 1, 6, 0]], [[3, 0, 4, 0], [3, 0, 3, 0], [0, 1, 1, 0]], [[0, 5, 6, 0], [3, 0, 6, 0], [0, 5, 5, 0]], [[0, 4, 8, 0], [0, 3, 8, 0], [2, 0, 0, 1]], [[0, 3, 0, 4], [0, 3, 4, 0], [3, 0, 0, 2]], [[0, 1, 0, 7], [0, 1, 8, 0], [3, 0, 7, 0]], [[0, 2, 9, 0], [1, 0, 0, 6], [1, 0, 4, 0]], [[4, 0, 8, 0], [0, 2, 0, 5], [3, 0, 4, 0]], [[0, 2, 0, 9], [0, 2, 5, 0], [0, 2, 0, 3]], [[3, 0, 4, 0], [0, 1, 5, 0], [0, 1, 4, 0]], [[0, 2, 0, 9], [0, 2, 6, 0], [3, 0, 6, 0]], [[0, 4, 0, 2], [0, 3, 0, 1], [1, 0, 1, 0]], [[3, 0, 0, 9], [2, 0, 0, 6], [0, 3, 2, 0]], [[0, 5, 0, 9], [1, 0, 2, 0], [1, 0, 0, 9]], [[3, 0, 8, 0], [3, 0, 0, 8], [3, 0, 4, 0]], [[4, 0, 0, 9], [0, 4, 0, 8], [2, 0, 0, 4]], [[0, 1, 0, 3], [2, 0, 0, 3], [0, 1, 0, 2]], [[4, 0, 0, 4], [0, 2, 5, 0], [0, 2, 0, 2]], [[0, 2, 2, 0], [3, 0, 0, 6], [3, 0, 2, 0]], [[0, 5, 0, 5], [0, 4, 3, 0], [0, 3, 3, 0]], [[0, 2, 3, 0], [0, 1, 2, 0], [2, 0, 0, 6]], [[3, 0, 6, 0], [3, 0, 0, 9], [0, 1, 4, 0]], [[0, 2, 7, 0], [2, 0, 0, 2], [2, 0, 4, 0]], [[1, 0, 0, 6], [0, 1, 2, 0], [1, 0, 1, 0]], [[5, 0, 0, 9], [0, 2, 0, 9], [5, 0, 8, 0]], [[5, 0, 4, 0], [0, 2, 4, 0], [0, 2, 0, 2]], [[0, 3, 6, 0], [4, 0, 0, 3], [0, 2, 3, 0]], [[3, 0, 9, 0], [2, 0, 0, 4], [2, 0, 0, 3]], [[0, 4, 4, 0], [2, 0, 0, 9], [2, 0, 3, 0]], [[0, 4, 6, 0], [0, 4, 0, 8], [0, 4, 5, 0]], [[0, 3, 0, 6], [0, 2, 0, 6], [2, 0, 3, 0]], [[4, 0, 0, 6], [4, 0, 0, 5], [0, 2, 0, 5]], [[4, 0, 9, 0], [0, 2, 6, 0], [0, 2, 5, 0]], [[0, 3, 4, 0], [2, 0, 0, 8], [2, 0, 2, 0]], [[2, 0, 9, 0], [0, 3, 6, 0], [2, 0, 5, 0]], [[5, 0, 0, 8], [3, 0, 4, 0], [0, 4, 0, 5]], [[4, 0, 9, 0], [3, 0, 8, 0], [0, 1, 6, 0]], [[0, 4, 7, 0], [0, 2, 5, 0], [1, 0, 2, 0]], [[0, 3, 0, 4], [0, 2, 0, 3], [1, 0, 0, 3]], [[0, 3, 8, 0], [0, 3, 6, 0], [0, 2, 6, 0]], [[2, 0, 0, 6], [2, 0, 5, 0], [2, 0, 4, 0]], [[0, 4, 6, 0], [2, 0, 0, 3], [2, 0, 3, 0]], [[5, 0, 0, 8], [0, 2, 7, 0], [3, 0, 6, 0]], [[0, 1, 5, 0], [2, 0, 4, 0], [2, 0, 3, 0]], [[3, 0, 0, 10], [3, 0, 3, 0], [0, 2, 3, 0]], [[2, 0, 0, 9], [2, 0, 0, 5], [0, 1, 0, 5]], [[4, 0, 5, 0], [2, 0, 0, 2], [0, 4, 0, 2]], [[5, 0, 0, 5], [0, 2, 0, 4], [3, 0, 0, 3]], [[5, 0, 0, 6], [3, 0, 0, 4], [0, 3, 0, 2]], [[0, 5, 5, 0], [4, 0, 0, 8], [0, 2, 5, 0]], [[5, 0, 0, 7], [0, 4, 7, 0], [4, 0, 6, 0]], [[3, 0, 0, 4], [0, 3, 0, 3], [0, 3, 3, 0]], [[3, 0, 7, 0], [0, 4, 7, 0], [0, 3, 0, 5]], [[0, 3, 9, 0], [0, 3, 8, 0], [0, 3, 7, 0]], [[0, 4, 0, 2], [2, 0, 3, 0], [0, 4, 2, 0]], [[2, 0, 6, 0], [0, 3, 5, 0], [1, 0, 4, 0]], [[0, 4, 7, 0], [0, 4, 6, 0], [2, 0, 0, 1]], [[0, 1, 0, 9], [2, 0, 8, 0], [2, 0, 0, 7]], [[4, 0, 10, 0], [0, 3, 0, 6], [4, 0, 0, 6]], [[2, 0, 4, 0], [2, 0, 3, 0], [0, 3, 4, 0]], [[5, 0, 5, 0], [5, 0, 0, 5], [5, 0, 0, 4]], [[0, 1, 0, 4], [0, 1, 7, 0], [2, 0, 0, 3]], [[0, 3, 0, 9], [2, 0, 0, 10], [2, 0, 0, 9]], [[0, 5, 0, 7], [0, 3, 0, 7], [0, 2, 6, 0]], [[3, 0, 0, 4], [0, 3, 0, 2], [0, 3, 0, 1]], [[4, 0, 0, 6], [0, 4, 9, 0], [2, 0, 9, 0]], [[3, 0, 10, 0], [3, 0, 0, 3], [0, 3, 9, 0]], [[5, 0, 0, 5], [3, 0, 3, 0], [0, 3, 3, 0]], [[0, 5, 0, 3], [3, 0, 4, 0], [0, 3, 4, 0]], [[0, 2, 0, 6], [0, 2, 5, 0], [3, 0, 0, 6]], [[0, 0, 0, 0]]]
